5 100 282
0 82 76
1 96 44 19 31
2 50 5 21 11
3 49 8 6 61
4 13 7 19 8
5 29 89 7 9
6 58 30 12 14
7 84 39 16 70
8 14 24 6 74
9 2 39 16 70
10 3 82 8 7
11 5 10 14 71
12 98 52 21 15
13 84 25 16 49
14 61 59 3 40
15 1 65 22 30
16 88 51 18 9
17 91 2 19 66
18 19 32 1 54
19 93 3 24 76
20 50 93 8 41
21 98 14 12 54
22 5 42 4 64
23 42 9 8 19
24 61 62 24 69
25 9 97 24 76
26 80 55 2 17
27 57 69 20 1
28 23 15 15 72
29 20 70 2 2
30 85 60 14 72
31 98 5 9 76
